NAME          DCAP_2_4_3_500_SS318
ROWS
 N  OBJ
 L  CON1
 L  CON2
 L  CON3
 L  CON4
 L  CON5
 L  CON6
 L  CON7
 L  CON8
 L  CON9
 L  CON10
 L  CON11
 L  CON12
 E  CON13
 E  CON14
 E  CON15
 E  CON16
 E  CON17
 E  CON18
 E  CON19
 E  CON20
 E  CON21
 E  CON22
 E  CON23
 E  CON24
COLUMNS
    x[1,1]    OBJ       6.180167      CON1      1.000000    
    x[1,1]    CON7      -1.000000     CON8      -1.000000   
    x[1,1]    CON9      -1.000000   
    x[1,2]    OBJ       6.563535      CON2      1.000000    
    x[1,2]    CON8      -1.000000     CON9      -1.000000   
    x[1,3]    OBJ       7.443064      CON3      1.000000    
    x[1,3]    CON9      -1.000000   
    x[2,1]    OBJ       6.732585      CON4      1.000000    
    x[2,1]    CON10     -1.000000     CON11     -1.000000   
    x[2,1]    CON12     -1.000000   
    x[2,2]    OBJ       5.039546      CON5      1.000000    
    x[2,2]    CON11     -1.000000     CON12     -1.000000   
    x[2,3]    OBJ       6.054841      CON6      1.000000    
    x[2,3]    CON12     -1.000000   
    MARKER    'MARKER'                'INTORG'
    u[1,1]    OBJ       48.076654     CON1      -1.000000   
    u[1,2]    OBJ       20.066487     CON2      -1.000000   
    u[1,3]    OBJ       32.230043     CON3      -1.000000   
    u[2,1]    OBJ       49.996186     CON4      -1.000000   
    u[2,2]    OBJ       49.466655     CON5      -1.000000   
    u[2,3]    OBJ       27.484319     CON6      -1.000000   
    y[1,1,1]  OBJ       5.881512      CON7      0.623004    
    y[1,1,1]  CON13     1.000000    
    y[1,1,2]  OBJ       5.930826      CON8      1.445575    
    y[1,1,2]  CON14     1.000000    
    y[1,1,3]  OBJ       9.342176      CON9      1.373978    
    y[1,1,3]  CON15     1.000000    
    y[1,2,1]  OBJ       7.698358      CON7      0.576736    
    y[1,2,1]  CON16     1.000000    
    y[1,2,2]  OBJ       6.221645      CON8      0.728311    
    y[1,2,2]  CON17     1.000000    
    y[1,2,3]  OBJ       6.527796      CON9      0.928402    
    y[1,2,3]  CON18     1.000000    
    y[1,3,1]  OBJ       9.067921      CON7      1.213983    
    y[1,3,1]  CON19     1.000000    
    y[1,3,2]  OBJ       5.533940      CON8      0.576371    
    y[1,3,2]  CON20     1.000000    
    y[1,3,3]  OBJ       5.450445      CON9      1.116196    
    y[1,3,3]  CON21     1.000000    
    y[1,4,1]  OBJ       7.537903      CON7      1.217585    
    y[1,4,1]  CON22     1.000000    
    y[1,4,2]  OBJ       7.253103      CON8      1.168829    
    y[1,4,2]  CON23     1.000000    
    y[1,4,3]  OBJ       5.086794      CON9      0.903141    
    y[1,4,3]  CON24     1.000000    
    y[2,1,1]  OBJ       7.991652      CON10     0.623004    
    y[2,1,1]  CON13     1.000000    
    y[2,1,2]  OBJ       9.375999      CON11     1.445575    
    y[2,1,2]  CON14     1.000000    
    y[2,1,3]  OBJ       8.482515      CON12     1.373978    
    y[2,1,3]  CON15     1.000000    
    y[2,2,1]  OBJ       8.666127      CON10     0.576736    
    y[2,2,1]  CON16     1.000000    
    y[2,2,2]  OBJ       9.416711      CON11     0.728311    
    y[2,2,2]  CON17     1.000000    
    y[2,2,3]  OBJ       7.187552      CON12     0.928402    
    y[2,2,3]  CON18     1.000000    
    y[2,3,1]  OBJ       6.762972      CON10     1.213983    
    y[2,3,1]  CON19     1.000000    
    y[2,3,2]  OBJ       8.218732      CON11     0.576371    
    y[2,3,2]  CON20     1.000000    
    y[2,3,3]  OBJ       9.084393      CON12     1.116196    
    y[2,3,3]  CON21     1.000000    
    y[2,4,1]  OBJ       8.134929      CON10     1.217585    
    y[2,4,1]  CON22     1.000000    
    y[2,4,2]  OBJ       5.730261      CON11     1.168829    
    y[2,4,2]  CON23     1.000000    
    y[2,4,3]  OBJ       6.347326      CON12     0.903141    
    y[2,4,3]  CON24     1.000000    
    z[1,1]    OBJ       832.944559    CON13     1.000000    
    z[1,2]    OBJ       679.533831    CON14     1.000000    
    z[1,3]    OBJ       974.042911    CON15     1.000000    
    z[2,1]    OBJ       641.626943    CON16     1.000000    
    z[2,2]    OBJ       646.432222    CON17     1.000000    
    z[2,3]    OBJ       569.727974    CON18     1.000000    
    z[3,1]    OBJ       675.217882    CON19     1.000000    
    z[3,2]    OBJ       611.050597    CON20     1.000000    
    z[3,3]    OBJ       502.274403    CON21     1.000000    
    z[4,1]    OBJ       933.561007    CON22     1.000000    
    z[4,2]    OBJ       778.666132    CON23     1.000000    
    z[4,3]    OBJ       522.665502    CON24     1.000000    
    MARKER    'MARKER'                 'INTEND'
RHS
    RHS       CON1      -0.000000     CON2      -0.000000   
    RHS       CON3      -0.000000     CON4      -0.000000   
    RHS       CON5      -0.000000     CON6      -0.000000   
    RHS       CON7      -0.000000     CON8      -0.000000   
    RHS       CON9      -0.000000     CON10     -0.000000   
    RHS       CON11     -0.000000     CON12     -0.000000   
    RHS       CON13     1.000000      CON14     1.000000    
    RHS       CON15     1.000000      CON16     1.000000    
    RHS       CON17     1.000000      CON18     1.000000    
    RHS       CON19     1.000000      CON20     1.000000    
    RHS       CON21     1.000000      CON22     1.000000    
    RHS       CON23     1.000000      CON24     1.000000    
BOUNDS
 BV BOUND     u[1,1]  
 BV BOUND     u[1,2]  
 BV BOUND     u[1,3]  
 BV BOUND     u[2,1]  
 BV BOUND     u[2,2]  
 BV BOUND     u[2,3]  
 BV BOUND     y[1,1,1]
 BV BOUND     y[1,1,2]
 BV BOUND     y[1,1,3]
 BV BOUND     y[1,2,1]
 BV BOUND     y[1,2,2]
 BV BOUND     y[1,2,3]
 BV BOUND     y[1,3,1]
 BV BOUND     y[1,3,2]
 BV BOUND     y[1,3,3]
 BV BOUND     y[1,4,1]
 BV BOUND     y[1,4,2]
 BV BOUND     y[1,4,3]
 BV BOUND     y[2,1,1]
 BV BOUND     y[2,1,2]
 BV BOUND     y[2,1,3]
 BV BOUND     y[2,2,1]
 BV BOUND     y[2,2,2]
 BV BOUND     y[2,2,3]
 BV BOUND     y[2,3,1]
 BV BOUND     y[2,3,2]
 BV BOUND     y[2,3,3]
 BV BOUND     y[2,4,1]
 BV BOUND     y[2,4,2]
 BV BOUND     y[2,4,3]
 BV BOUND     z[1,1]  
 BV BOUND     z[1,2]  
 BV BOUND     z[1,3]  
 BV BOUND     z[2,1]  
 BV BOUND     z[2,2]  
 BV BOUND     z[2,3]  
 BV BOUND     z[3,1]  
 BV BOUND     z[3,2]  
 BV BOUND     z[3,3]  
 BV BOUND     z[4,1]  
 BV BOUND     z[4,2]  
 BV BOUND     z[4,3]  
ENDATA
